5 5
1 92 4 8 2 46 3 39 0 52
4 8 0 50 2 50 3 83 1 68
3 27 4 77 0 38 2 21 1 90
0 45 2 58 3 23 1 54 4 30
4 95 0 95 1 16 2 52 3 41
-1
0 1 2 4 5
0 2 3 4 5
0 3 5
0 1 2 3 5
0 1 2 5
-2
136 139 293 353
87 162 235 328
144 284
65 137 198 238
123 198 367

394 4
15 6 21 12 4
0 18 22 9 14
16 7 2 13 23
10 17 8 3 24
5 20 1 11 19
